data/instances/vrp_files/train_75.vrp
NAME : 75
COMMENT : Generated instance No. 75
TYPE : CVRP
DIMENSION : 21
EDGE_WEIGHT_TYPE : EUC_2D
CAPACITY : 30
NODE_COORD_SECTION
 1 984 796
 2 21 819
 3 824 787
 4 283 837
 5 542 373
 6 625 12
 7 142 742
 8 244 598
 9 385 854
 10 952 883
 11 270 194
 12 474 7
 13 25 553
 14 520 994
 15 201 258
 16 113 917
 17 777 822
 18 902 524
 19 451 330
 20 589 454
 21 451 936
DEMAND_SECTION
1 0
2 9
3 4
4 9
5 7
6 6
7 5
8 9
9 2
10 2
11 9
12 3
13 8
14 9
15 8
16 4
17 1
18 4
19 9
20 2
21 3
DEPOT_SECTION
 1
 -1
EOF